 &projwfc
    outdir='temp'
    prefix='feo'
    DeltaE=0.1
 /
