 &bands
    prefix  = 'Si_exc2'
    filband = 'bands.dat'
    outdir = './tmp/'
 /
