&input
     fildyn='si.dynmat_G',
     asr='simple',  
     filout='dynmat.out',
     filxsf='dynmat.axsf',
/

