 &inputph
   outdir='./tmp/',
   prefix='si',
   epsil=.true.,
   fildyn='si.dynmat_G',
   tr2_ph=1.0d-14,
   amass(1)=28.086
 /
0.0 0.0 0.0

