 &inputph
   outdir='./tmp/',
   prefix='al',
   ldisp=.true.
   nq1=4,nq2=4,nq3=4  
   fildyn='al.dynmat',
   tr2_ph=1.0d-14,
   amass(1)=26.982,
 /
