 &control
    calculation = 'bands',
    verbosity = 'high'
    prefix = 'Al_exc2'
    outdir = './tmp/'
    pseudo_dir = '../pseudo/'
 /
 &system
    ibrav =  2, 
    celldm(1) = 7.65, 
    nat =  1, 
    ntyp = 1,
    ecutwfc = 12.0,
    occupations = 'smearing',
    smearing = 'marzari-vanderbilt',
    degauss = 0.02
 /
 &electrons
    mixing_beta = 0.7
 /

ATOMIC_SPECIES
 Al 26.98  Al.pz-vbc.UPF

ATOMIC_POSITIONS (alat)
 Al 0.0 0.0 0.0

K_POINTS tpiba
 28
   0.0 0.0 0.0 1.0   #Gamma-point
   0.0 0.0 0.1 1.0
   0.0 0.0 0.2 1.0
   0.0 0.0 0.3 1.0
   0.0 0.0 0.4 1.0
   0.0 0.0 0.5 1.0
   0.0 0.0 0.6 1.0
   0.0 0.0 0.7 1.0
   0.0 0.0 0.8 1.0
   0.0 0.0 0.9 1.0
   0.0 0.0 1.0 1.0   #X-point
   0.0 0.0 0.0 1.0
   0.0 0.1 0.1 1.0
   0.0 0.2 0.2 1.0
   0.0 0.3 0.3 1.0
   0.0 0.4 0.4 1.0
   0.0 0.5 0.5 1.0
   0.0 0.6 0.6 1.0
   0.0 0.7 0.7 1.0
   0.0 0.8 0.8 1.0
   0.0 0.9 0.9 1.0
   0.0 1.0 1.0 1.0  #X-point
   0.0 0.0 0.0 1.0
   0.1 0.1 0.1 1.0
   0.2 0.2 0.2 1.0
   0.3 0.3 0.3 1.0
   0.4 0.4 0.4 1.0
   0.5 0.5 0.5 1.0  #L-point
