 &bands
    prefix  = 'Al_exc2'
    filband = 'bands.dat'
    outdir = './tmp/'
 /
