&input
  fildyn   = 'CO2.dyn'
  asr      = 'zero-dim'
/
