&input
  fildyn = 'gar-w_05-1H-ph.dyn'
  filxsf = 'gar-w_05-1H-dynmat.axsf'
  filmol = 'gar-w_05-1H-dynmat.mold'
  filout = 'gar-w_05-1H-dynmat.dat'
/
