 &control
    calculation       = 'relax'
    restart_mode      = 'from_scratch'
    prefix            = 'gar-w_03-2H'
    tstress           = .false.
    tprnfor           = .true.
    wf_collect        = .true.
    verbosity         = 'medium'
    pseudo_dir        = '../PP_LIBRARY/'
    outdir            = './scratch/'

    etot_conv_thr     = 1e-6
    forc_conv_thr     = 1e-5
 /
 &system
    ibrav             = 8
    a                 =  4.26084498661943814205
    b                 = 12
    c                 =  8

    nat               = 18
    ntyp              = 2

    ecutwfc           = 35
 /
    occupations       = 'smearing'
    smearing          = 'fermi-dirac'
    degauss           = 0.004

 &electrons
    conv_thr          = 1e-9
    mixing_beta       = 0.5
 /
&IONS
    trust_radius_ini  = 0.01
    bfgs_ndim         = 3
    pot_extrapolation = 'second_order'
    wfc_extrapolation = 'second_order'
/

ATOMIC_SPECIES
C 12.0107  C.pbe-mt_gipaw.UPF
H  1.0079  H.pbe-vbc.UPF

ATOMIC_POSITIONS alat
H        0.189539935  -0.656155853   0.302151295
H        0.290943755  -0.785801855  -0.077378649
H        0.709056254  -0.785801855   0.077378649
H        0.810460073  -0.656155853  -0.302151295
C        0.170759662  -0.596032336   0.049212226
C        0.829240338  -0.596032336  -0.049212226
C        0.335800495  -0.285574340   0.003121147
C        0.664199505  -0.285574340  -0.003121147
C        0.174970530   0.000000000  -0.000173072
C        0.825029469   0.000000000   0.000173072
C        0.335800495   0.285574340   0.003121147
C        0.664199505   0.285574340  -0.003121147
C        0.170759662   0.596032336   0.049212226
C        0.829240338   0.596032336  -0.049212226
H       -0.189539935   0.656155853  -0.302151295
H       -0.290943755   0.785801855   0.077378649
H       -0.709056254   0.785801855  -0.077378649
H       -0.810460073   0.656155853   0.302151295

K_POINTS AUTOMATIC
  02 1 1 0 0 0
