 &control
    calculation       = 'relax'
    restart_mode      = 'from_scratch'
    prefix            = 'gar-w_04-1H'
    tstress           = .false.
    tprnfor           = .true.
    wf_collect        = .true.
    verbosity         = 'medium'
    pseudo_dir        = '../PP_LIBRARY/'
    outdir            = './scratch/'

    etot_conv_thr     = 1e-6
    forc_conv_thr     = 1e-5
 /
 &system
    ibrav             = 8
    a                 =  4.26084498661943814205
    b                 = 13
    c                 =  8

    nat               = 16
    ntyp              = 2

    ecutwfc           = 35
 /
    occupations       = 'smearing'
    smearing          = 'fermi-dirac'
    degauss           = 0.004

 &electrons
    conv_thr          = 1e-9
    mixing_beta       = 0.5
 /
&IONS
    trust_radius_ini  = 0.01
    bfgs_ndim         = 3
    pot_extrapolation = 'second_order'
    wfc_extrapolation = 'second_order'
/

ATOMIC_SPECIES
C 12.0107  C.pbe-mt_gipaw.UPF
H  1.0079  H.pbe-vbc.UPF

ATOMIC_POSITIONS alat
H        1.034797368  -0.942668357   0.000000000
H        0.465202631  -0.942668357  -0.000000000
C        0.912119385  -0.717893436   0.000000000
C        0.587880615  -0.717893436   0.000000000
C        0.077266767  -0.435379643   0.000000000
C        0.422733232  -0.435379643   0.000000000
C        0.917786197  -0.146775005  -0.000000000
C        0.582213802  -0.146775005  -0.000000000
C        0.082213802   0.146775005   0.000000000
C        0.417786198   0.146775005  -0.000000000
C        0.922733232   0.435379643  -0.000000000
C        0.577266767   0.435379643   0.000000000
C        0.087880615   0.717893436  -0.000000000
C        0.412119385   0.717893436   0.000000000
H       -0.034797368   0.942668357   0.000000000
H        0.534797368   0.942668357  -0.000000000

K_POINTS AUTOMATIC
  02 1 1 0 0 0
