 &projwfc
    outdir='temp'
    prefix='cu2o'
    DeltaE=0.1
 /
