&control
   calculation='scf',
   restart_mode='from_scratch',
   prefix='cu2o',
   pseudo_dir='../pseudo',
   outdir='temp',
 /
 &system
    ibrav=1, 
    celldm(1)=8.21
    nat=6, 
    ntyp=2,
    nspin = 1,
    ecutwfc=30,
    ecutrho=300,
    lda_plus_u=.true.,
    Hubbard_U(1) = 10.42
    Hubbard_U(2) = 1.d-10
/
 &electrons
    mixing_beta=0.3,
    startingwfc='atomic+random',
 /
ATOMIC_SPECIES
  Cu 1.0 Cu.pbe-d-rrkjus.UPF
  O  1.0 O.pbe-rrkjus.UPF
ATOMIC_POSITIONS {crystal}
  Cu    0.25 0.25 0.25
  Cu    0.75 0.25 0.75
  Cu    0.75 0.75 0.25
  Cu    0.25 0.75 0.75
  O     0.00 0.00 0.00
  O     0.50 0.50 0.50
K_POINTS {automatic}
 4 4 4 0 0 0
