&input
 fildyn='si.dynmat',
 zasr='simple'
 flfrc='si444.fc'
/
