 &control
    title = 'Hydrogen Molecule',
    calculation = 'cp',
    restart_mode = 'from_scratch',
    ndr = 50,
    ndw = 50,
    dt    = 5.0d0,
    nstep  = 400,
    iprint = 10,
    isave  = 100,
    tstress = .true.,
    tprnfor = .true.,
    prefix = 'h2'
    pseudo_dir='./',
    outdir='./tmp/',
 /
 &system
    ibrav = 1,
    celldm(1) = 12.0,
    celldm(2) = 1.0,
    celldm(3) = 1.0,
    celldm(4) = 0.0,
    celldm(5) = 0.0,
    celldm(6) = 0.0,
    nat  = 2,
    ntyp = 1,
    nbnd = 1,
    ecutwfc = 60.0,
 /
 &electrons
    electron_dynamics = 'sd',
    emass = 400.d0,
    emass_cutoff = 1.d0,
 /
 &ions
    ion_dynamics = 'none',
 /
 &cell
    cell_dynamics = 'none',
    press = 0.0d0,
 /
ATOMIC_SPECIES
 H 1.00d0 H.blyp-vbc.UPF
ATOMIC_POSITIONS (bohr)
   H     0.6000  0.0 0.0 
   H    -0.6000  0.0 0.0
