&control
    calculation = 'scf'
    restart_mode='from_scratch',
    prefix='al',
    tstress = .true.
    tprnfor = .true.
    pseudo_dir = '../../pseudo',
    outdir='tmp'
 /
 &system
    ibrav=  2,  nat=  1, ntyp= 1,celldm(1)=7.667,
    ecutwfc =50,  ecutrho= 200.0,nbnd=6
    occupations='smearing', smearing='fermi-dirac', degauss=0.003
/
 &electrons
    mixing_mode = 'plain'
    mixing_beta = 0.1
    conv_thr =  1.0d-8
 /
 &ions
 /

 &cell
 /

ATOMIC_SPECIES
 Al     26.982  Al.pbe-rrkj.UPF 

ATOMIC_POSITIONS {crystal}
Al 0.00000 0.00000 0.00000

K_POINTS {automatic}
 12 12 12  0 0 0
