&input
 fildyn='al.dynmat',
 zasr='simple'
 flfrc='al444.fc'
/
